c nIsolatedPIs 0
c maxPI 8
p cnf 17 28
c gate 9 1 -6 0
1 -9 0
-6 -9 0
-1 6 9 0
c gate 10 -1 6 0
-1 -10 0
6 -10 0
1 -6 10 0
c gate 11 -9 -10 0
-9 -11 0
-10 -11 0
9 10 11 0
c gate 12 -2 3 0
-2 -12 0
3 -12 0
2 -3 12 0
c gate 13 4 5 0
4 -13 0
5 -13 0
-4 -5 13 0
c gate 14 7 8 0
7 -14 0
8 -14 0
-7 -8 14 0
c gate 15 13 14 0
13 -15 0
14 -15 0
-13 -14 15 0
c gate 16 12 15 0
12 -16 0
15 -16 0
-12 -15 16 0
c gate 17 -11 16 0
-11 -17 0
16 -17 0
11 -16 17 0
c PO
17 0
